p edge 75 1388
e 1 3
e 1 6
e 1 7
e 1 10
e 1 11
e 1 12
e 1 13
e 1 15
e 1 16
e 1 17
e 1 18
e 1 20
e 1 22
e 1 23
e 1 25
e 1 27
e 1 28
e 1 29
e 1 30
e 1 31
e 1 32
e 1 33
e 1 34
e 1 35
e 1 36
e 1 45
e 1 47
e 1 48
e 1 50
e 1 51
e 1 52
e 1 54
e 1 56
e 1 57
e 1 65
e 1 69
e 1 71
e 1 72
e 1 75
e 2 3
e 2 4
e 2 5
e 2 6
e 2 7
e 2 11
e 2 13
e 2 19
e 2 20
e 2 22
e 2 24
e 2 26
e 2 27
e 2 29
e 2 30
e 2 32
e 2 33
e 2 37
e 2 38
e 2 40
e 2 41
e 2 43
e 2 44
e 2 45
e 2 48
e 2 51
e 2 56
e 2 57
e 2 58
e 2 59
e 2 64
e 2 66
e 2 68
e 2 69
e 2 71
e 2 72
e 2 73
e 3 5
e 3 6
e 3 7
e 3 8
e 3 10
e 3 12
e 3 13
e 3 14
e 3 15
e 3 17
e 3 18
e 3 20
e 3 21
e 3 23
e 3 24
e 3 27
e 3 28
e 3 33
e 3 34
e 3 35
e 3 36
e 3 39
e 3 47
e 3 48
e 3 52
e 3 56
e 3 58
e 3 60
e 3 61
e 3 62
e 3 64
e 3 68
e 3 69
e 3 70
e 3 71
e 3 72
e 3 75
e 4 5
e 4 6
e 4 9
e 4 13
e 4 14
e 4 15
e 4 17
e 4 18
e 4 19
e 4 20
e 4 21
e 4 23
e 4 24
e 4 26
e 4 28
e 4 30
e 4 31
e 4 33
e 4 39
e 4 42
e 4 44
e 4 45
e 4 46
e 4 50
e 4 51
e 4 54
e 4 55
e 4 56
e 4 58
e 4 64
e 4 67
e 4 68
e 4 69
e 4 70
e 4 71
e 4 72
e 5 9
e 5 10
e 5 12
e 5 13
e 5 14
e 5 18
e 5 22
e 5 23
e 5 24
e 5 25
e 5 27
e 5 30
e 5 31
e 5 36
e 5 41
e 5 42
e 5 43
e 5 44
e 5 46
e 5 47
e 5 48
e 5 49
e 5 51
e 5 52
e 5 54
e 5 56
e 5 59
e 5 61
e 5 66
e 5 69
e 5 71
e 5 72
e 5 74
e 6 7
e 6 9
e 6 11
e 6 13
e 6 14
e 6 21
e 6 27
e 6 31
e 6 32
e 6 34
e 6 35
e 6 36
e 6 37
e 6 40
e 6 46
e 6 47
e 6 48
e 6 51
e 6 52
e 6 54
e 6 59
e 6 65
e 6 66
e 6 69
e 6 70
e 6 73
e 7 10
e 7 12
e 7 16
e 7 17
e 7 19
e 7 22
e 7 25
e 7 26
e 7 27
e 7 29
e 7 31
e 7 32
e 7 34
e 7 35
e 7 37
e 7 38
e 7 40
e 7 42
e 7 43
e 7 45
e 7 47
e 7 51
e 7 52
e 7 53
e 7 54
e 7 55
e 7 57
e 7 58
e 7 59
e 7 60
e 7 63
e 7 66
e 7 71
e 7 73
e 8 11
e 8 13
e 8 14
e 8 16
e 8 17
e 8 18
e 8 21
e 8 23
e 8 25
e 8 26
e 8 28
e 8 33
e 8 34
e 8 37
e 8 40
e 8 41
e 8 42
e 8 44
e 8 45
e 8 47
e 8 48
e 8 51
e 8 54
e 8 58
e 8 59
e 8 60
e 8 61
e 8 66
e 8 68
e 8 69
e 8 71
e 8 73
e 8 74
e 9 12
e 9 14
e 9 16
e 9 17
e 9 20
e 9 23
e 9 24
e 9 26
e 9 33
e 9 37
e 9 39
e 9 40
e 9 41
e 9 42
e 9 43
e 9 45
e 9 46
e 9 47
e 9 48
e 9 49
e 9 50
e 9 52
e 9 53
e 9 55
e 9 59
e 9 61
e 9 63
e 9 64
e 9 66
e 9 67
e 9 70
e 9 71
e 9 74
e 9 75
e 10 11
e 10 12
e 10 13
e 10 15
e 10 17
e 10 19
e 10 20
e 10 22
e 10 23
e 10 24
e 10 25
e 10 26
e 10 31
e 10 33
e 10 35
e 10 38
e 10 40
e 10 42
e 10 43
e 10 44
e 10 45
e 10 49
e 10 51
e 10 54
e 10 55
e 10 61
e 10 64
e 10 66
e 10 67
e 10 68
e 10 72
e 10 75
e 11 13
e 11 14
e 11 16
e 11 17
e 11 18
e 11 19
e 11 22
e 11 24
e 11 26
e 11 28
e 11 31
e 11 33
e 11 34
e 11 36
e 11 39
e 11 40
e 11 43
e 11 44
e 11 45
e 11 46
e 11 47
e 11 49
e 11 51
e 11 52
e 11 54
e 11 55
e 11 56
e 11 57
e 11 58
e 11 60
e 11 61
e 11 65
e 11 67
e 11 70
e 11 74
e 12 17
e 12 18
e 12 23
e 12 26
e 12 27
e 12 28
e 12 29
e 12 30
e 12 36
e 12 38
e 12 39
e 12 41
e 12 43
e 12 44
e 12 48
e 12 49
e 12 50
e 12 51
e 12 52
e 12 53
e 12 54
e 12 55
e 12 56
e 12 57
e 12 59
e 12 60
e 12 62
e 12 63
e 12 66
e 12 67
e 12 69
e 12 70
e 12 72
e 12 74
e 12 75
e 13 14
e 13 18
e 13 20
e 13 21
e 13 24
e 13 25
e 13 26
e 13 28
e 13 29
e 13 30
e 13 31
e 13 32
e 13 34
e 13 38
e 13 41
e 13 44
e 13 45
e 13 48
e 13 49
e 13 51
e 13 54
e 13 56
e 13 60
e 13 63
e 13 65
e 13 66
e 13 71
e 13 75
e 14 15
e 14 16
e 14 20
e 14 22
e 14 23
e 14 25
e 14 32
e 14 33
e 14 35
e 14 36
e 14 37
e 14 38
e 14 42
e 14 43
e 14 45
e 14 50
e 14 51
e 14 53
e 14 54
e 14 56
e 14 57
e 14 59
e 14 60
e 14 61
e 14 62
e 14 63
e 14 64
e 14 65
e 14 67
e 14 69
e 14 70
e 14 71
e 14 72
e 14 73
e 14 74
e 15 16
e 15 17
e 15 18
e 15 23
e 15 25
e 15 27
e 15 28
e 15 29
e 15 30
e 15 31
e 15 37
e 15 40
e 15 41
e 15 42
e 15 47
e 15 48
e 15 49
e 15 51
e 15 53
e 15 55
e 15 56
e 15 60
e 15 61
e 15 68
e 15 69
e 15 71
e 15 72
e 15 75
e 16 17
e 16 18
e 16 20
e 16 21
e 16 22
e 16 23
e 16 28
e 16 29
e 16 30
e 16 32
e 16 33
e 16 36
e 16 37
e 16 41
e 16 43
e 16 44
e 16 45
e 16 46
e 16 48
e 16 49
e 16 51
e 16 52
e 16 53
e 16 55
e 16 56
e 16 59
e 16 63
e 16 65
e 16 67
e 16 69
e 16 70
e 16 71
e 16 72
e 16 73
e 17 19
e 17 21
e 17 22
e 17 25
e 17 26
e 17 27
e 17 28
e 17 29
e 17 30
e 17 31
e 17 33
e 17 35
e 17 36
e 17 38
e 17 40
e 17 41
e 17 42
e 17 43
e 17 45
e 17 46
e 17 48
e 17 49
e 17 59
e 17 60
e 17 61
e 17 62
e 17 68
e 17 70
e 17 74
e 18 20
e 18 25
e 18 27
e 18 29
e 18 33
e 18 35
e 18 38
e 18 39
e 18 42
e 18 43
e 18 44
e 18 46
e 18 48
e 18 49
e 18 50
e 18 54
e 18 55
e 18 56
e 18 58
e 18 62
e 18 63
e 18 65
e 18 70
e 18 71
e 18 72
e 18 73
e 18 75
e 19 21
e 19 24
e 19 25
e 19 26
e 19 29
e 19 30
e 19 32
e 19 33
e 19 35
e 19 36
e 19 41
e 19 44
e 19 47
e 19 48
e 19 49
e 19 53
e 19 55
e 19 57
e 19 62
e 19 64
e 19 65
e 19 68
e 19 69
e 19 70
e 19 75
e 20 21
e 20 22
e 20 23
e 20 25
e 20 27
e 20 29
e 20 32
e 20 33
e 20 34
e 20 37
e 20 38
e 20 39
e 20 41
e 20 42
e 20 43
e 20 48
e 20 50
e 20 51
e 20 52
e 20 53
e 20 54
e 20 55
e 20 56
e 20 58
e 20 59
e 20 64
e 20 66
e 20 69
e 20 72
e 20 73
e 20 74
e 21 23
e 21 24
e 21 26
e 21 28
e 21 29
e 21 32
e 21 34
e 21 35
e 21 37
e 21 38
e 21 40
e 21 41
e 21 42
e 21 47
e 21 48
e 21 49
e 21 50
e 21 52
e 21 54
e 21 55
e 21 56
e 21 57
e 21 58
e 21 61
e 21 64
e 21 65
e 21 67
e 21 68
e 21 69
e 21 72
e 21 73
e 21 74
e 22 24
e 22 26
e 22 29
e 22 33
e 22 35
e 22 38
e 22 39
e 22 40
e 22 41
e 22 42
e 22 43
e 22 44
e 22 55
e 22 56
e 22 57
e 22 58
e 22 63
e 22 65
e 22 66
e 22 68
e 22 73
e 22 74
e 23 25
e 23 27
e 23 28
e 23 29
e 23 33
e 23 34
e 23 35
e 23 38
e 23 42
e 23 43
e 23 46
e 23 48
e 23 49
e 23 55
e 23 56
e 23 57
e 23 58
e 23 59
e 23 60
e 23 61
e 23 62
e 23 63
e 23 65
e 23 66
e 23 68
e 23 71
e 23 72
e 23 73
e 24 25
e 24 30
e 24 31
e 24 34
e 24 37
e 24 38
e 24 39
e 24 41
e 24 42
e 24 45
e 24 46
e 24 47
e 24 50
e 24 51
e 24 53
e 24 55
e 24 56
e 24 57
e 24 61
e 24 63
e 24 64
e 24 65
e 24 67
e 24 68
e 24 70
e 24 74
e 24 75
e 25 26
e 25 28
e 25 29
e 25 31
e 25 35
e 25 36
e 25 37
e 25 40
e 25 42
e 25 43
e 25 44
e 25 47
e 25 49
e 25 50
e 25 51
e 25 55
e 25 56
e 25 60
e 25 61
e 25 63
e 25 65
e 25 69
e 25 70
e 25 71
e 25 72
e 25 73
e 25 75
e 26 27
e 26 29
e 26 34
e 26 36
e 26 39
e 26 42
e 26 43
e 26 45
e 26 48
e 26 50
e 26 51
e 26 60
e 26 62
e 26 63
e 26 64
e 26 65
e 26 66
e 26 67
e 26 68
e 26 69
e 26 70
e 26 71
e 26 74
e 26 75
e 27 29
e 27 31
e 27 34
e 27 35
e 27 36
e 27 38
e 27 41
e 27 42
e 27 43
e 27 46
e 27 49
e 27 50
e 27 51
e 27 52
e 27 53
e 27 54
e 27 56
e 27 58
e 27 59
e 27 62
e 27 66
e 27 69
e 27 71
e 27 72
e 27 73
e 27 74
e 28 29
e 28 30
e 28 31
e 28 33
e 28 34
e 28 36
e 28 37
e 28 39
e 28 42
e 28 43
e 28 46
e 28 47
e 28 48
e 28 54
e 28 55
e 28 57
e 28 58
e 28 64
e 28 66
e 28 67
e 28 68
e 28 69
e 28 70
e 28 71
e 28 72
e 28 74
e 28 75
e 29 30
e 29 31
e 29 32
e 29 34
e 29 35
e 29 36
e 29 38
e 29 41
e 29 42
e 29 43
e 29 44
e 29 47
e 29 48
e 29 52
e 29 59
e 29 61
e 29 62
e 29 65
e 29 68
e 29 69
e 29 73
e 30 31
e 30 35
e 30 36
e 30 38
e 30 39
e 30 40
e 30 41
e 30 42
e 30 45
e 30 48
e 30 49
e 30 53
e 30 55
e 30 57
e 30 62
e 30 63
e 30 65
e 30 67
e 30 68
e 30 74
e 30 75
e 31 32
e 31 36
e 31 38
e 31 40
e 31 41
e 31 42
e 31 46
e 31 47
e 31 48
e 31 49
e 31 50
e 31 51
e 31 52
e 31 54
e 31 56
e 31 58
e 31 59
e 31 61
e 31 62
e 31 64
e 31 65
e 31 67
e 31 71
e 31 75
e 32 34
e 32 35
e 32 37
e 32 38
e 32 43
e 32 44
e 32 45
e 32 47
e 32 49
e 32 53
e 32 63
e 32 64
e 32 65
e 32 68
e 32 69
e 32 71
e 32 73
e 32 74
e 33 34
e 33 39
e 33 45
e 33 47
e 33 48
e 33 57
e 33 59
e 33 60
e 33 62
e 33 63
e 33 65
e 33 66
e 33 71
e 33 72
e 33 73
e 33 75
e 34 35
e 34 36
e 34 41
e 34 42
e 34 43
e 34 46
e 34 48
e 34 51
e 34 52
e 34 57
e 34 64
e 34 67
e 34 69
e 34 72
e 34 73
e 35 41
e 35 42
e 35 43
e 35 44
e 35 46
e 35 54
e 35 55
e 35 56
e 35 57
e 35 60
e 35 61
e 35 62
e 35 65
e 35 66
e 35 71
e 35 73
e 35 75
e 36 38
e 36 39
e 36 40
e 36 41
e 36 42
e 36 43
e 36 44
e 36 45
e 36 46
e 36 47
e 36 51
e 36 54
e 36 56
e 36 59
e 36 60
e 36 61
e 36 63
e 36 64
e 36 65
e 36 66
e 36 68
e 36 71
e 36 73
e 36 75
e 37 40
e 37 42
e 37 43
e 37 44
e 37 45
e 37 46
e 37 47
e 37 48
e 37 49
e 37 50
e 37 53
e 37 57
e 37 58
e 37 60
e 37 61
e 37 62
e 37 63
e 37 64
e 37 65
e 37 67
e 37 70
e 37 72
e 37 73
e 38 39
e 38 41
e 38 44
e 38 45
e 38 47
e 38 48
e 38 49
e 38 52
e 38 57
e 38 58
e 38 60
e 38 62
e 38 63
e 38 65
e 38 66
e 38 71
e 39 41
e 39 43
e 39 44
e 39 45
e 39 46
e 39 47
e 39 48
e 39 50
e 39 52
e 39 53
e 39 55
e 39 56
e 39 57
e 39 58
e 39 60
e 39 61
e 39 65
e 39 66
e 39 67
e 39 68
e 39 69
e 39 71
e 39 73
e 39 75
e 40 41
e 40 43
e 40 45
e 40 46
e 40 50
e 40 55
e 40 57
e 40 58
e 40 62
e 40 63
e 40 65
e 40 66
e 40 67
e 40 69
e 40 71
e 40 72
e 40 73
e 40 75
e 41 42
e 41 46
e 41 48
e 41 49
e 41 52
e 41 53
e 41 54
e 41 55
e 41 56
e 41 58
e 41 60
e 41 62
e 41 63
e 41 64
e 41 65
e 41 66
e 41 69
e 41 70
e 41 73
e 41 75
e 42 44
e 42 45
e 42 48
e 42 50
e 42 53
e 42 54
e 42 57
e 42 58
e 42 59
e 42 60
e 42 61
e 42 62
e 42 63
e 42 64
e 42 65
e 42 66
e 42 67
e 42 68
e 42 72
e 43 44
e 43 50
e 43 52
e 43 54
e 43 55
e 43 58
e 43 60
e 43 61
e 43 62
e 43 63
e 43 65
e 43 66
e 43 68
e 43 71
e 43 72
e 43 75
e 44 46
e 44 47
e 44 49
e 44 53
e 44 63
e 44 65
e 44 70
e 45 48
e 45 49
e 45 53
e 45 54
e 45 56
e 45 57
e 45 60
e 45 64
e 45 69
e 45 70
e 45 71
e 45 74
e 46 49
e 46 50
e 46 51
e 46 52
e 46 54
e 46 58
e 46 59
e 46 60
e 46 63
e 46 66
e 46 68
e 46 70
e 47 48
e 47 49
e 47 52
e 47 53
e 47 56
e 47 59
e 47 61
e 47 63
e 47 64
e 47 67
e 47 68
e 47 72
e 47 73
e 47 74
e 47 75
e 48 50
e 48 53
e 48 55
e 48 57
e 48 58
e 48 59
e 48 61
e 48 62
e 48 64
e 48 66
e 48 67
e 48 69
e 48 71
e 48 75
e 49 50
e 49 52
e 49 54
e 49 55
e 49 56
e 49 58
e 49 59
e 49 63
e 49 66
e 49 67
e 49 68
e 49 70
e 49 71
e 49 72
e 49 73
e 49 74
e 49 75
e 50 51
e 50 53
e 50 54
e 50 55
e 50 56
e 50 57
e 50 58
e 50 59
e 50 60
e 50 65
e 50 68
e 50 71
e 50 73
e 51 58
e 51 59
e 51 61
e 51 62
e 51 65
e 51 66
e 51 67
e 51 69
e 51 70
e 51 74
e 52 54
e 52 57
e 52 59
e 52 64
e 52 65
e 52 68
e 52 69
e 52 73
e 52 75
e 53 55
e 53 56
e 53 58
e 53 59
e 53 65
e 53 67
e 53 70
e 53 74
e 53 75
e 54 55
e 54 59
e 54 61
e 54 63
e 54 64
e 54 65
e 54 66
e 54 67
e 54 71
e 54 72
e 55 57
e 55 60
e 55 61
e 55 62
e 55 63
e 55 70
e 55 72
e 55 74
e 56 60
e 56 61
e 56 62
e 56 63
e 56 67
e 56 68
e 56 69
e 56 70
e 56 71
e 57 58
e 57 59
e 57 60
e 57 61
e 57 63
e 57 66
e 57 67
e 57 68
e 57 69
e 57 72
e 57 74
e 58 59
e 58 60
e 58 61
e 58 62
e 58 64
e 58 65
e 58 66
e 58 67
e 58 69
e 58 70
e 58 71
e 58 72
e 58 74
e 59 61
e 59 62
e 59 67
e 59 69
e 59 70
e 59 73
e 59 75
e 60 63
e 60 65
e 60 66
e 60 67
e 60 69
e 60 72
e 60 73
e 61 63
e 61 64
e 61 66
e 61 67
e 61 68
e 61 70
e 61 73
e 61 74
e 61 75
e 62 64
e 62 65
e 62 66
e 62 67
e 62 68
e 62 71
e 62 72
e 62 74
e 63 64
e 63 65
e 63 68
e 63 71
e 64 65
e 64 68
e 64 73
e 64 75
e 65 69
e 65 74
e 66 72
e 66 74
e 67 68
e 67 70
e 67 71
e 67 72
e 68 70
e 68 71
e 68 73
e 68 74
e 68 75
e 69 70
e 69 73
e 69 74
e 69 75
e 70 72
e 70 73
e 71 72
e 71 74
e 71 75
e 72 73
e 72 74
e 72 75
e 73 74
e 74 75
